#######################
Slurm job id: 17497813_119
Running on machine: p70
Running cmd: /nfs/shared/static-builds/gurobi1003 SOFTMEMLIMIT=125 MIPFocus=2 Presolve=1 TimeLimit=300 seed=8 /nfs/models/miplib2010/k16x240.mps.bz2
#######################
Set parameter TimeLimit to value 300
Set parameter SoftMemLimit to value 125
Set parameter MIPFocus to value 2
Set parameter LogFile to value 1003-MIPFocus2-Presolve1-TimeLimit300-k16x240-8.log
Set parameter Presolve to value 1
Set parameter Seed to value 8
Using license file /opt/gurobi/gurobi.lic

Gurobi Optimizer version 10.0.3 build v10.0.3rc0 (linux64)
Copyright (c) 2023, Gurobi Optimization, LLC

Read MPS format model from file /nfs/models/miplib2010/k16x240.mps.bz2
Reading time = 0.00 seconds
k16x240: 256 rows, 480 columns, 960 nonzeros

CPU model: Intel(R) Xeon(R) E-2388G CPU @ 3.20GHz, instruction set [SSE2|AVX|AVX2|AVX512]
Thread count: 8 physical cores, 16 logical processors, using up to 16 threads

Optimize a model with 256 rows, 480 columns and 960 nonzeros
Model fingerprint: 0x4e80885f
Variable types: 240 continuous, 240 integer (240 binary)
Coefficient statistics:
  Matrix range     [1e+00, 1e+03]
  Objective range  [1e+00, 1e+03]
  Bounds range     [1e+00, 1e+03]
  RHS range        [4e+00, 4e+02]
Found heuristic solution: objective 27117.000000
Presolve time: 0.00s
Presolved: 256 rows, 480 columns, 960 nonzeros
Variable types: 240 continuous, 240 integer (240 binary)

Root relaxation: objective 2.769838e+03, 51 iterations, 0.00 seconds (0.00 work units)

    Nodes    |    Current Node    |     Objective Bounds      |     Work
 Expl Unexpl |  Obj  Depth IntInf | Incumbent    BestBd   Gap | It/Node Time

     0     0 2769.83800    0   14 27117.0000 2769.83800  89.8%     -    0s
H    0     0                    11359.000000 2769.83800  75.6%     -    0s
H    0     0                    11195.000000 2769.83800  75.3%     -    0s
H    0     0                    11074.000000 8116.87580  26.7%     -    0s
     0     0 8116.87580    0   26 11074.0000 8116.87580  26.7%     -    0s
H    0     0                    10916.000000 8116.87580  25.6%     -    0s
H    0     0                    10806.000000 8588.30479  20.5%     -    0s
     0     0 8588.30479    0   25 10806.0000 8588.30479  20.5%     -    0s
     0     0 8613.92228    0   22 10806.0000 8613.92228  20.3%     -    0s
     0     0 8720.79342    0   17 10806.0000 8720.79342  19.3%     -    0s
H    0     0                    10748.000000 8720.79342  18.9%     -    0s
     0     0 8842.48840    0   27 10748.0000 8842.48840  17.7%     -    0s
     0     0 8855.03261    0   33 10748.0000 8855.03261  17.6%     -    0s
     0     0 8857.29435    0   38 10748.0000 8857.29435  17.6%     -    0s
     0     0 9005.82152    0   42 10748.0000 9005.82152  16.2%     -    0s
     0     0 9058.07672    0   41 10748.0000 9058.07672  15.7%     -    0s
     0     0 9071.35414    0   40 10748.0000 9071.35414  15.6%     -    0s
     0     0 9075.85259    0   42 10748.0000 9075.85259  15.6%     -    0s
     0     0 9122.63097    0   34 10748.0000 9122.63097  15.1%     -    0s
     0     0 9126.06112    0   30 10748.0000 9126.06112  15.1%     -    0s
     0     0 9165.80577    0   29 10748.0000 9165.80577  14.7%     -    0s
     0     0 9181.07956    0   35 10748.0000 9181.07956  14.6%     -    0s
     0     0 9221.88790    0   33 10748.0000 9221.88790  14.2%     -    0s
     0     0 9221.88790    0   33 10748.0000 9221.88790  14.2%     -    0s
H    0     0                    10745.000000 9221.88790  14.2%     -    0s
     0     2 9221.88790    0   33 10745.0000 9221.88790  14.2%     -    0s
H   32    40                    10681.000000 9338.55870  12.6%  70.1    0s
H  119   141                    10678.000000 9338.55870  12.5%  47.6    0s
H  125   141                    10674.000000 9338.55870  12.5%  46.5    0s
 34897 12664 10376.9990   23   10 10674.0000 10072.7326  5.63%  24.1    5s
 83364 18419 10607.0729   34   19 10674.0000 10269.8844  3.79%  24.9   10s
 124046 14438     cutoff   28      10674.0000 10402.4779  2.54%  25.2   15s

Cutting planes:
  Gomory: 1
  Lift-and-project: 8
  Cover: 85
  Implied bound: 44
  MIR: 170
  Flow cover: 308
  Flow path: 55
  Inf proof: 8
  Zero half: 6
  Network: 51

Explored 156491 nodes (3839505 simplex iterations) in 19.08 seconds (23.30 work units)
Thread count was 16 (of 16 available processors)

Solution count 10: 10674 10678 10681 ... 11359

Optimal solution found (tolerance 1.00e-04)
Best objective 1.067400000000e+04, best bound 1.067400000000e+04, gap 0.0000%
